<instance format="XCSP3" type="COP">
  <variables>
    <array id="x" size="[30]"> 0 1 </array>
  </variables>
  <constraints>
    <sum>
      <list> x[] </list>
      <coeffs> 15 7 6 22 23 9 7 7 4 1 5 16 8 8 4 9 3 5 9 1 9 2 19 11 5 23 16 16 25 10 </coeffs>
      <condition> (le,100) </condition>
    </sum>
  </constraints>
  <objectives>
    <maximize type="sum">
      <list> x[] </list>
      <coeffs> 68 22 52 34 89 14 40 97 79 33 98 57 89 24 25 51 91 48 18 87 19 73 90 62 41 97 60 29 82 43 </coeffs>
    </maximize>
  </objectives>
</instance>
